54731
44, 38, 24, 50, 20, 35, 5, 37, 7, 40, 51, 13, 43, 3, 6, 28, 55, 49, 26, 21, 29, 22, 10, 16, 39, 46, 36, 15, 52, 45, 11, 31, 25, 27, 1, 33, 42, 2, 14, 9, 12, 18, 4, 30, 47, 34, 54, 53, 23, 17, 48, 19, 41, 32, 8
